(set-logic QF_S)
(declare-fun var_0xINPUT_111962 () String)
(assert (and (= (len var_0xINPUT_111962) 0) (= (len var_0xINPUT_111962) 0) (not (= var_0xINPUT_111962 "4PH2ujcENG"))))
(check-sat var_0xINPUT_111962)